unknown system                          
   1.00000000000000     
     0.0000000000000000    2.7344146145042036    2.7344146145042036
     2.7344146145042036    0.0000000000000000    2.7344146145042036
     2.7344146145042036    2.7344146145042036    0.0000000000000000
   Si
     2
Direct
  0.1250000000000000  0.1250000000000000  0.1250000000000000
  0.8750000000000000  0.8750000000000000  0.8750000000000000
 
  0.00000000E+00  0.00000000E+00  0.00000000E+00
  0.00000000E+00  0.00000000E+00  0.00000000E+00
